p cnf 200 1110
-101 -16 0
-101 84 0
-101 -28 0
-101 -66 0
-101 45 0
-101 53 0
-101 98 0
-101 -83 0
-101 -81 0
-101 -58 0
101 16 -84 28 66 -45 -53 -98 83 81 58 0
-102 -25 0
-102 55 0
-102 88 0
-102 71 0
-102 92 0
-102 -1 0
-102 48 0
-102 -24 0
-102 -98 0
-102 86 0
102 25 -55 -88 -71 -92 1 -48 24 98 -86 0
-103 71 0
-103 63 0
-103 15 0
-103 93 0
-103 19 0
-103 88 0
-103 -73 0
-103 -89 0
-103 -83 0
-103 -64 0
103 -71 -63 -15 -93 -19 -88 73 89 83 64 0
-104 -25 0
-104 -16 0
-104 -57 0
-104 -69 0
-104 64 0
-104 28 0
-104 48 0
-104 33 0
-104 96 0
-104 -70 0
104 25 16 57 69 -64 -28 -48 -33 -96 70 0
-105 85 0
-105 -56 0
-105 -19 0
-105 1 0
-105 -79 0
-105 -25 0
-105 -41 0
-105 -57 0
-105 -72 0
-105 45 0
105 -85 56 19 -1 79 25 41 57 72 -45 0
-106 59 0
-106 -46 0
-106 72 0
-106 -9 0
-106 4 0
-106 75 0
-106 38 0
-106 6 0
-106 -64 0
-106 -41 0
106 -59 46 -72 9 -4 -75 -38 -6 64 41 0
-107 -64 0
-107 -57 0
-107 -72 0
-107 44 0
-107 -6 0
-107 94 0
-107 75 0
-107 -26 0
-107 18 0
-107 -86 0
107 64 57 72 -44 6 -94 -75 26 -18 86 0
-108 4 0
-108 60 0
-108 -8 0
-108 -91 0
-108 -83 0
-108 -54 0
-108 -10 0
-108 96 0
-108 -3 0
-108 -88 0
108 -4 -60 8 91 83 54 10 -96 3 88 0
-109 81 0
-109 -23 0
-109 -74 0
-109 -56 0
-109 96 0
-109 -52 0
-109 -66 0
-109 -97 0
-109 30 0
-109 37 0
109 -81 23 74 56 -96 52 66 97 -30 -37 0
-110 -96 0
-110 95 0
-110 -16 0
-110 94 0
-110 -93 0
-110 5 0
-110 -22 0
-110 84 0
-110 11 0
-110 -30 0
110 96 -95 16 -94 93 -5 22 -84 -11 30 0
101 102 103 104 105 106 107 108 109 110 0
-111 -67 0
-111 -71 0
-111 25 0
-111 34 0
-111 10 0
-111 -83 0
-111 61 0
-111 -81 0
-111 -8 0
-111 27 0
111 67 71 -25 -34 -10 83 -61 81 8 -27 0
-112 35 0
-112 34 0
-112 -17 0
-112 87 0
-112 -11 0
-112 80 0
-112 54 0
-112 41 0
-112 -76 0
-112 15 0
112 -35 -34 17 -87 11 -80 -54 -41 76 -15 0
-113 -50 0
-113 53 0
-113 -77 0
-113 -59 0
-113 15 0
-113 88 0
-113 -65 0
-113 -79 0
-113 -44 0
-113 -2 0
113 50 -53 77 59 -15 -88 65 79 44 2 0
-114 56 0
-114 44 0
-114 -86 0
-114 -34 0
-114 85 0
-114 -25 0
-114 -96 0
-114 18 0
-114 4 0
-114 -2 0
114 -56 -44 86 34 -85 25 96 -18 -4 2 0
-115 -24 0
-115 1 0
-115 31 0
-115 -99 0
-115 -93 0
-115 -26 0
-115 23 0
-115 91 0
-115 -57 0
-115 16 0
115 24 -1 -31 99 93 26 -23 -91 57 -16 0
-116 81 0
-116 -83 0
-116 -50 0
-116 82 0
-116 71 0
-116 91 0
-116 -22 0
-116 -6 0
-116 -38 0
-116 65 0
116 -81 83 50 -82 -71 -91 22 6 38 -65 0
-117 -69 0
-117 80 0
-117 47 0
-117 35 0
-117 100 0
-117 25 0
-117 -40 0
-117 62 0
-117 -37 0
-117 6 0
117 69 -80 -47 -35 -100 -25 40 -62 37 -6 0
-118 17 0
-118 57 0
-118 -39 0
-118 -67 0
-118 -77 0
-118 -22 0
-118 -8 0
-118 -86 0
-118 100 0
-118 -69 0
118 -17 -57 39 67 77 22 8 86 -100 69 0
-119 -83 0
-119 -44 0
-119 -65 0
-119 66 0
-119 -1 0
-119 -32 0
-119 51 0
-119 -25 0
-119 -73 0
-119 -17 0
119 83 44 65 -66 1 32 -51 25 73 17 0
-120 -53 0
-120 6 0
-120 82 0
-120 74 0
-120 -59 0
-120 88 0
-120 -78 0
-120 -93 0
-120 -32 0
-120 -27 0
120 53 -6 -82 -74 59 -88 78 93 32 27 0
111 112 113 114 115 116 117 118 119 120 0
-121 80 0
-121 3 0
-121 87 0
-121 -69 0
-121 -8 0
-121 79 0
-121 -60 0
-121 -48 0
-121 -64 0
-121 -14 0
121 -80 -3 -87 69 8 -79 60 48 64 14 0
-122 -4 0
-122 -23 0
-122 -59 0
-122 -76 0
-122 8 0
-122 -92 0
-122 -70 0
-122 19 0
-122 57 0
-122 29 0
122 4 23 59 76 -8 92 70 -19 -57 -29 0
-123 14 0
-123 27 0
-123 -85 0
-123 -49 0
-123 21 0
-123 -65 0
-123 -29 0
-123 80 0
-123 35 0
-123 86 0
123 -14 -27 85 49 -21 65 29 -80 -35 -86 0
-124 50 0
-124 -36 0
-124 -53 0
-124 91 0
-124 26 0
-124 92 0
-124 1 0
-124 52 0
-124 58 0
-124 -81 0
124 -50 36 53 -91 -26 -92 -1 -52 -58 81 0
-125 42 0
-125 -78 0
-125 15 0
-125 -64 0
-125 -30 0
-125 94 0
-125 7 0
-125 -29 0
-125 4 0
-125 -9 0
125 -42 78 -15 64 30 -94 -7 29 -4 9 0
-126 -86 0
-126 36 0
-126 17 0
-126 -9 0
-126 44 0
-126 -63 0
-126 -49 0
-126 -40 0
-126 -11 0
-126 92 0
126 86 -36 -17 9 -44 63 49 40 11 -92 0
-127 21 0
-127 65 0
-127 34 0
-127 -50 0
-127 76 0
-127 -87 0
-127 66 0
-127 57 0
-127 -100 0
-127 -30 0
127 -21 -65 -34 50 -76 87 -66 -57 100 30 0
-128 -58 0
-128 -60 0
-128 -48 0
-128 71 0
-128 -4 0
-128 56 0
-128 -1 0
-128 69 0
-128 44 0
-128 96 0
128 58 60 48 -71 4 -56 1 -69 -44 -96 0
-129 -30 0
-129 17 0
-129 10 0
-129 72 0
-129 53 0
-129 43 0
-129 80 0
-129 -100 0
-129 9 0
-129 -11 0
129 30 -17 -10 -72 -53 -43 -80 100 -9 11 0
-130 6 0
-130 -100 0
-130 32 0
-130 76 0
-130 12 0
-130 -70 0
-130 -68 0
-130 -69 0
-130 -93 0
-130 -1 0
130 -6 100 -32 -76 -12 70 68 69 93 1 0
121 122 123 124 125 126 127 128 129 130 0
-131 12 0
-131 -62 0
-131 -41 0
-131 -77 0
-131 36 0
-131 10 0
-131 63 0
-131 -88 0
-131 -39 0
-131 17 0
131 -12 62 41 77 -36 -10 -63 88 39 -17 0
-132 36 0
-132 -93 0
-132 -88 0
-132 -26 0
-132 20 0
-132 19 0
-132 -60 0
-132 67 0
-132 66 0
-132 23 0
132 -36 93 88 26 -20 -19 60 -67 -66 -23 0
-133 -99 0
-133 -96 0
-133 18 0
-133 16 0
-133 34 0
-133 -43 0
-133 71 0
-133 41 0
-133 92 0
-133 59 0
133 99 96 -18 -16 -34 43 -71 -41 -92 -59 0
-134 84 0
-134 44 0
-134 51 0
-134 -23 0
-134 100 0
-134 -19 0
-134 -13 0
-134 10 0
-134 -47 0
-134 91 0
134 -84 -44 -51 23 -100 19 13 -10 47 -91 0
-135 9 0
-135 91 0
-135 -16 0
-135 -87 0
-135 21 0
-135 -24 0
-135 -79 0
-135 15 0
-135 -35 0
-135 20 0
135 -9 -91 16 87 -21 24 79 -15 35 -20 0
-136 -6 0
-136 -10 0
-136 14 0
-136 78 0
-136 -73 0
-136 -50 0
-136 -63 0
-136 77 0
-136 80 0
-136 -57 0
136 6 10 -14 -78 73 50 63 -77 -80 57 0
-137 35 0
-137 -71 0
-137 -97 0
-137 67 0
-137 -73 0
-137 88 0
-137 -64 0
-137 -4 0
-137 66 0
-137 31 0
137 -35 71 97 -67 73 -88 64 4 -66 -31 0
-138 -61 0
-138 41 0
-138 22 0
-138 -81 0
-138 -85 0
-138 83 0
-138 37 0
-138 -74 0
-138 -75 0
-138 73 0
138 61 -41 -22 81 85 -83 -37 74 75 -73 0
-139 -57 0
-139 25 0
-139 -23 0
-139 17 0
-139 -80 0
-139 45 0
-139 54 0
-139 27 0
-139 -28 0
-139 63 0
139 57 -25 23 -17 80 -45 -54 -27 28 -63 0
-140 -34 0
-140 63 0
-140 17 0
-140 52 0
-140 72 0
-140 -73 0
-140 59 0
-140 78 0
-140 -42 0
-140 4 0
140 34 -63 -17 -52 -72 73 -59 -78 42 -4 0
131 132 133 134 135 136 137 138 139 140 0
-141 -92 0
-141 -89 0
-141 84 0
-141 3 0
-141 45 0
-141 -87 0
-141 83 0
-141 32 0
-141 -63 0
-141 5 0
141 92 89 -84 -3 -45 87 -83 -32 63 -5 0
-142 -68 0
-142 24 0
-142 88 0
-142 -33 0
-142 93 0
-142 -62 0
-142 90 0
-142 -39 0
-142 95 0
-142 -77 0
142 68 -24 -88 33 -93 62 -90 39 -95 77 0
-143 84 0
-143 -72 0
-143 -11 0
-143 75 0
-143 -100 0
-143 -97 0
-143 -6 0
-143 58 0
-143 36 0
-143 -95 0
143 -84 72 11 -75 100 97 6 -58 -36 95 0
-144 -62 0
-144 -19 0
-144 -71 0
-144 -86 0
-144 -85 0
-144 -52 0
-144 91 0
-144 100 0
-144 38 0
-144 -95 0
144 62 19 71 86 85 52 -91 -100 -38 95 0
-145 78 0
-145 -1 0
-145 49 0
-145 -55 0
-145 8 0
-145 74 0
-145 -41 0
-145 -19 0
-145 -12 0
-145 96 0
145 -78 1 -49 55 -8 -74 41 19 12 -96 0
-146 97 0
-146 60 0
-146 64 0
-146 99 0
-146 93 0
-146 13 0
-146 -47 0
-146 -78 0
-146 32 0
-146 -70 0
146 -97 -60 -64 -99 -93 -13 47 78 -32 70 0
-147 10 0
-147 -23 0
-147 -41 0
-147 31 0
-147 90 0
-147 100 0
-147 76 0
-147 -40 0
-147 -45 0
-147 -38 0
147 -10 23 41 -31 -90 -100 -76 40 45 38 0
-148 95 0
-148 -97 0
-148 30 0
-148 -90 0
-148 -51 0
-148 16 0
-148 35 0
-148 24 0
-148 -23 0
-148 -43 0
148 -95 97 -30 90 51 -16 -35 -24 23 43 0
-149 87 0
-149 -66 0
-149 16 0
-149 -57 0
-149 -43 0
-149 8 0
-149 9 0
-149 58 0
-149 46 0
-149 -27 0
149 -87 66 -16 57 43 -8 -9 -58 -46 27 0
-150 -51 0
-150 -73 0
-150 63 0
-150 99 0
-150 5 0
-150 83 0
-150 4 0
-150 54 0
-150 12 0
-150 -27 0
150 51 73 -63 -99 -5 -83 -4 -54 -12 27 0
141 142 143 144 145 146 147 148 149 150 0
-151 26 0
-151 -20 0
-151 52 0
-151 80 0
-151 -91 0
-151 38 0
-151 32 0
-151 -45 0
-151 -76 0
-151 -11 0
151 -26 20 -52 -80 91 -38 -32 45 76 11 0
-152 -86 0
-152 76 0
-152 8 0
-152 -46 0
-152 -22 0
-152 24 0
-152 -43 0
-152 -17 0
-152 70 0
-152 -6 0
152 86 -76 -8 46 22 -24 43 17 -70 6 0
-153 71 0
-153 -45 0
-153 -28 0
-153 -47 0
-153 87 0
-153 -25 0
-153 97 0
-153 -27 0
-153 75 0
-153 -40 0
153 -71 45 28 47 -87 25 -97 27 -75 40 0
-154 93 0
-154 14 0
-154 41 0
-154 73 0
-154 -35 0
-154 84 0
-154 55 0
-154 -78 0
-154 -7 0
-154 -99 0
154 -93 -14 -41 -73 35 -84 -55 78 7 99 0
-155 52 0
-155 4 0
-155 68 0
-155 5 0
-155 -54 0
-155 22 0
-155 45 0
-155 -41 0
-155 -78 0
-155 44 0
155 -52 -4 -68 -5 54 -22 -45 41 78 -44 0
-156 -62 0
-156 6 0
-156 -9 0
-156 -43 0
-156 42 0
-156 -85 0
-156 19 0
-156 87 0
-156 -63 0
-156 53 0
156 62 -6 9 43 -42 85 -19 -87 63 -53 0
-157 51 0
-157 78 0
-157 15 0
-157 47 0
-157 -20 0
-157 -64 0
-157 -35 0
-157 73 0
-157 -91 0
-157 43 0
157 -51 -78 -15 -47 20 64 35 -73 91 -43 0
-158 32 0
-158 -17 0
-158 36 0
-158 26 0
-158 -19 0
-158 16 0
-158 80 0
-158 11 0
-158 30 0
-158 -33 0
158 -32 17 -36 -26 19 -16 -80 -11 -30 33 0
-159 -5 0
-159 -70 0
-159 -19 0
-159 -41 0
-159 51 0
-159 98 0
-159 9 0
-159 -62 0
-159 66 0
-159 61 0
159 5 70 19 41 -51 -98 -9 62 -66 -61 0
-160 -75 0
-160 2 0
-160 -11 0
-160 46 0
-160 -7 0
-160 -42 0
-160 -6 0
-160 99 0
-160 -29 0
-160 50 0
160 75 -2 11 -46 7 42 6 -99 29 -50 0
151 152 153 154 155 156 157 158 159 160 0
-161 -36 0
-161 -7 0
-161 -54 0
-161 -99 0
-161 -29 0
-161 49 0
-161 -95 0
-161 -39 0
-161 3 0
-161 -61 0
161 36 7 54 99 29 -49 95 39 -3 61 0
-162 -46 0
-162 -4 0
-162 79 0
-162 62 0
-162 90 0
-162 -51 0
-162 85 0
-162 -70 0
-162 47 0
-162 -2 0
162 46 4 -79 -62 -90 51 -85 70 -47 2 0
-163 -65 0
-163 40 0
-163 7 0
-163 88 0
-163 64 0
-163 52 0
-163 -78 0
-163 96 0
-163 21 0
-163 -87 0
163 65 -40 -7 -88 -64 -52 78 -96 -21 87 0
-164 -28 0
-164 94 0
-164 -59 0
-164 -41 0
-164 -27 0
-164 100 0
-164 79 0
-164 40 0
-164 31 0
-164 90 0
164 28 -94 59 41 27 -100 -79 -40 -31 -90 0
-165 24 0
-165 -23 0
-165 92 0
-165 4 0
-165 -100 0
-165 70 0
-165 43 0
-165 98 0
-165 57 0
-165 42 0
165 -24 23 -92 -4 100 -70 -43 -98 -57 -42 0
-166 -35 0
-166 -38 0
-166 -6 0
-166 -79 0
-166 -56 0
-166 96 0
-166 22 0
-166 84 0
-166 -54 0
-166 91 0
166 35 38 6 79 56 -96 -22 -84 54 -91 0
-167 -86 0
-167 -59 0
-167 -82 0
-167 -14 0
-167 -25 0
-167 31 0
-167 -46 0
-167 95 0
-167 80 0
-167 15 0
167 86 59 82 14 25 -31 46 -95 -80 -15 0
-168 -8 0
-168 76 0
-168 72 0
-168 -90 0
-168 -7 0
-168 -54 0
-168 84 0
-168 -66 0
-168 -18 0
-168 95 0
168 8 -76 -72 90 7 54 -84 66 18 -95 0
-169 -33 0
-169 96 0
-169 -28 0
-169 -69 0
-169 16 0
-169 -59 0
-169 -82 0
-169 -58 0
-169 52 0
-169 -14 0
169 33 -96 28 69 -16 59 82 58 -52 14 0
-170 44 0
-170 8 0
-170 -14 0
-170 4 0
-170 -93 0
-170 73 0
-170 -70 0
-170 95 0
-170 -18 0
-170 -21 0
170 -44 -8 14 -4 93 -73 70 -95 18 21 0
161 162 163 164 165 166 167 168 169 170 0
-171 -35 0
-171 -99 0
-171 75 0
-171 56 0
-171 -95 0
-171 -81 0
-171 31 0
-171 52 0
-171 -64 0
-171 87 0
171 35 99 -75 -56 95 81 -31 -52 64 -87 0
-172 -54 0
-172 -33 0
-172 20 0
-172 -71 0
-172 -36 0
-172 50 0
-172 93 0
-172 -1 0
-172 -43 0
-172 75 0
172 54 33 -20 71 36 -50 -93 1 43 -75 0
-173 90 0
-173 -18 0
-173 -32 0
-173 -95 0
-173 -69 0
-173 -88 0
-173 -17 0
-173 -28 0
-173 13 0
-173 78 0
173 -90 18 32 95 69 88 17 28 -13 -78 0
-174 74 0
-174 -15 0
-174 -87 0
-174 -81 0
-174 61 0
-174 -31 0
-174 -46 0
-174 -27 0
-174 16 0
-174 92 0
174 -74 15 87 81 -61 31 46 27 -16 -92 0
-175 -88 0
-175 81 0
-175 -4 0
-175 -1 0
-175 -89 0
-175 21 0
-175 73 0
-175 28 0
-175 24 0
-175 -64 0
175 88 -81 4 1 89 -21 -73 -28 -24 64 0
-176 14 0
-176 -35 0
-176 59 0
-176 75 0
-176 -67 0
-176 54 0
-176 -78 0
-176 -93 0
-176 -31 0
-176 -73 0
176 -14 35 -59 -75 67 -54 78 93 31 73 0
-177 -84 0
-177 -2 0
-177 -6 0
-177 -21 0
-177 -26 0
-177 60 0
-177 -41 0
-177 -32 0
-177 -9 0
-177 -54 0
177 84 2 6 21 26 -60 41 32 9 54 0
-178 62 0
-178 74 0
-178 -61 0
-178 26 0
-178 -79 0
-178 56 0
-178 -77 0
-178 -25 0
-178 24 0
-178 -9 0
178 -62 -74 61 -26 79 -56 77 25 -24 9 0
-179 -100 0
-179 -19 0
-179 -39 0
-179 -89 0
-179 -43 0
-179 -88 0
-179 -4 0
-179 -68 0
-179 62 0
-179 87 0
179 100 19 39 89 43 88 4 68 -62 -87 0
-180 -31 0
-180 97 0
-180 74 0
-180 -68 0
-180 -95 0
-180 77 0
-180 89 0
-180 55 0
-180 3 0
-180 63 0
180 31 -97 -74 68 95 -77 -89 -55 -3 -63 0
171 172 173 174 175 176 177 178 179 180 0
-181 -11 0
-181 21 0
-181 24 0
-181 -15 0
-181 89 0
-181 33 0
-181 79 0
-181 -66 0
-181 -40 0
-181 -95 0
181 11 -21 -24 15 -89 -33 -79 66 40 95 0
-182 -20 0
-182 -83 0
-182 -57 0
-182 -85 0
-182 1 0
-182 -53 0
-182 67 0
-182 91 0
-182 94 0
-182 -19 0
182 20 83 57 85 -1 53 -67 -91 -94 19 0
-183 -30 0
-183 -46 0
-183 76 0
-183 8 0
-183 9 0
-183 11 0
-183 -19 0
-183 12 0
-183 -61 0
-183 70 0
183 30 46 -76 -8 -9 -11 19 -12 61 -70 0
-184 -17 0
-184 52 0
-184 -71 0
-184 56 0
-184 -46 0
-184 23 0
-184 19 0
-184 79 0
-184 53 0
-184 -16 0
184 17 -52 71 -56 46 -23 -19 -79 -53 16 0
-185 -25 0
-185 -3 0
-185 -37 0
-185 76 0
-185 -5 0
-185 -64 0
-185 -39 0
-185 -47 0
-185 -67 0
-185 92 0
185 25 3 37 -76 5 64 39 47 67 -92 0
-186 4 0
-186 51 0
-186 13 0
-186 15 0
-186 -29 0
-186 30 0
-186 -22 0
-186 -50 0
-186 80 0
-186 67 0
186 -4 -51 -13 -15 29 -30 22 50 -80 -67 0
-187 -79 0
-187 -47 0
-187 -50 0
-187 49 0
-187 95 0
-187 -21 0
-187 -61 0
-187 -85 0
-187 20 0
-187 -6 0
187 79 47 50 -49 -95 21 61 85 -20 6 0
-188 17 0
-188 94 0
-188 6 0
-188 -38 0
-188 76 0
-188 36 0
-188 -43 0
-188 23 0
-188 35 0
-188 11 0
188 -17 -94 -6 38 -76 -36 43 -23 -35 -11 0
-189 95 0
-189 25 0
-189 4 0
-189 75 0
-189 -68 0
-189 -36 0
-189 92 0
-189 71 0
-189 47 0
-189 22 0
189 -95 -25 -4 -75 68 36 -92 -71 -47 -22 0
-190 28 0
-190 -8 0
-190 63 0
-190 -100 0
-190 -77 0
-190 -49 0
-190 -15 0
-190 22 0
-190 82 0
-190 -85 0
190 -28 8 -63 100 77 49 15 -22 -82 85 0
181 182 183 184 185 186 187 188 189 190 0
-191 61 0
-191 -41 0
-191 -79 0
-191 11 0
-191 -99 0
-191 55 0
-191 54 0
-191 63 0
-191 -96 0
-191 71 0
191 -61 41 79 -11 99 -55 -54 -63 96 -71 0
-192 -52 0
-192 7 0
-192 -8 0
-192 16 0
-192 -87 0
-192 92 0
-192 84 0
-192 -96 0
-192 48 0
-192 77 0
192 52 -7 8 -16 87 -92 -84 96 -48 -77 0
-193 15 0
-193 -58 0
-193 -64 0
-193 -74 0
-193 -20 0
-193 9 0
-193 -29 0
-193 54 0
-193 -40 0
-193 81 0
193 -15 58 64 74 20 -9 29 -54 40 -81 0
-194 -60 0
-194 -66 0
-194 33 0
-194 7 0
-194 2 0
-194 77 0
-194 47 0
-194 -26 0
-194 -68 0
-194 56 0
194 60 66 -33 -7 -2 -77 -47 26 68 -56 0
-195 -35 0
-195 98 0
-195 -73 0
-195 -69 0
-195 92 0
-195 -85 0
-195 56 0
-195 -78 0
-195 88 0
-195 22 0
195 35 -98 73 69 -92 85 -56 78 -88 -22 0
-196 48 0
-196 -12 0
-196 -46 0
-196 60 0
-196 -34 0
-196 10 0
-196 -75 0
-196 -69 0
-196 -67 0
-196 -9 0
196 -48 12 46 -60 34 -10 75 69 67 9 0
-197 -90 0
-197 37 0
-197 -20 0
-197 -67 0
-197 77 0
-197 17 0
-197 91 0
-197 -94 0
-197 -7 0
-197 -66 0
197 90 -37 20 67 -77 -17 -91 94 7 66 0
-198 33 0
-198 -84 0
-198 -70 0
-198 94 0
-198 -75 0
-198 -54 0
-198 48 0
-198 7 0
-198 27 0
-198 -30 0
198 -33 84 70 -94 75 54 -48 -7 -27 30 0
-199 36 0
-199 97 0
-199 -94 0
-199 63 0
-199 64 0
-199 98 0
-199 93 0
-199 77 0
-199 -29 0
-199 -1 0
199 -36 -97 94 -63 -64 -98 -93 -77 29 1 0
-200 14 0
-200 -32 0
-200 -100 0
-200 33 0
-200 -21 0
-200 95 0
-200 -81 0
-200 44 0
-200 1 0
-200 98 0
200 -14 32 100 -33 21 -95 81 -44 -1 -98 0
191 192 193 194 195 196 197 198 199 200 0
